\ Equation counts
\     Total        E        G        L        N        X        C        B
\	0	0	0	0
\
\ Variable counts
\                  x        b        i      s1s      s2s       sc       si
\     Total     cont   binary  integer     sos1     sos2    scont     sint
\	80	80

\ Nonzero counts
\     Total    const       NL      DLL
\
\
Minimize
 obj: [ + 17.5 x_1 * x_4 - 2.0 x_1 * x_8 - 19.0 x_1 * x_9 + 16.0 x_1 * x_12 - 12.5 x_1 * x_14 + 9.0 x_1 * x_17 + 10.0 x_1 * x_22 - 3.0 x_1 * x_23 + 22.5 x_1 * x_28 + 14.0 x_1 * x_39 - 21.0 x_1 * x_42 + 24.5 x_1 * x_47 + 3.0 x_1 * x_48 - 0.5 x_1 * x_49 + 8.0 x_1 * x_56 + 20.5 x_1 * x_58 + 20.5 x_1 * x_68 - 11.5 x_1 * x_72 + 20.5 x_1 * x_74 + 3.5 x_1 * x_75 + 20.5 x_1 * x_77 - 0.5 x_2 * x_2 - 1.5 x_2 * x_6 + 6.0 x_2 * x_7 - 0.5 x_2 * x_9 - 21.5 x_2 * x_13 - 11.5 x_2 * x_18 + 12.5 x_2 * x_25 - 9.0 x_2 * x_26 + 5.0 x_2 * x_32 - 23.0 x_2 * x_34 + 20.5 x_2 * x_35 - 10.5 x_2 * x_40 + 10.0 x_2 * x_45 - 2.5 x_2 * x_50 + 3.0 x_2 * x_56 + 24.0 x_2 * x_72 + 20.5 x_3 * x_6 + 1.5 x_3 * x_11 - 19.0 x_3 * x_13 + 4.5 x_3 * x_23 - 6.0 x_3 * x_32 - 8.5 x_3 * x_38 - 11.0 x_3 * x_41 + 4.0 x_3 * x_42 + 8.0 x_3 * x_44 - 18.0 x_3 * x_46 + 0.5 x_3 * x_56 - 9.0 x_3 * x_57 - 16.0 x_3 * x_62 - 16.0 x_3 * x_63 - 18.0 x_3 * x_66 + 22.5 x_3 * x_68 + 16.0 x_3 * x_75 + 17.5 x_4 * x_1 + 15.0 x_4 * x_12 + 16.5 x_4 * x_16 - 3.5 x_4 * x_27 + 20.5 x_4 * x_30 + 13.5 x_4 * x_44 - 12.5 x_4 * x_48 + 15.5 x_4 * x_52 - 17.0 x_4 * x_54 + 9.0 x_4 * x_56 - 8.0 x_4 * x_60 + 21.5 x_4 * x_61 - 14.0 x_4 * x_63 + 4.0 x_4 * x_64 - 0.5 x_4 * x_74 + 24.0 x_4 * x_78 + 7.0 x_4 * x_79 - 3.5 x_4 * x_80 - 0.5 x_5 * x_6 + 21.5 x_5 * x_14 - 2.5 x_5 * x_20 - 18.0 x_5 * x_21 - 20.5 x_5 * x_23 - 20.5 x_5 * x_24 + 12.5 x_5 * x_34 - 4.5 x_5 * x_38 - 7.0 x_5 * x_39 - 6.5 x_5 * x_42 + 10.5 x_5 * x_47 - 17.5 x_5 * x_48 + 4.0 x_5 * x_50 - 17.0 x_5 * x_55 + 8.0 x_5 * x_56 - 21.0 x_5 * x_58 - 4.0 x_5 * x_59 + 17.5 x_5 * x_65 - 12.5 x_5 * x_79 + 21.0 x_5 * x_80 - 1.5 x_6 * x_2 + 20.5 x_6 * x_3 - 0.5 x_6 * x_5 - 2.5 x_6 * x_8 - 16.5 x_6 * x_12 + 15.5 x_6 * x_16 - 9.0 x_6 * x_18 + 12.5 x_6 * x_20 + 3.5 x_6 * x_22 + 23.5 x_6 * x_23 + 22.5 x_6 * x_24 + 6.5 x_6 * x_34 - 19.5 x_6 * x_36 - 9.5 x_6 * x_37 + 14.0 x_6 * x_49 + 19.0 x_6 * x_54 - 1.5 x_6 * x_55 + 22.5 x_6 * x_65 - 2.0 x_6 * x_73 - 10.0 x_6 * x_75 - 21.5 x_6 * x_76 + 6.0 x_7 * x_2 - 6.0 x_7 * x_9 + 3.5 x_7 * x_10 + 24.5 x_7 * x_11 + 20.5 x_7 * x_21 + 22.0 x_7 * x_23 + 9.0 x_7 * x_35 + 1.0 x_7 * x_38 - 19.5 x_7 * x_40 - 22.5 x_7 * x_45 - 20.5 x_7 * x_50 + 14.0 x_7 * x_53 - 21.0 x_7 * x_55 + 23.0 x_7 * x_63 + 3.0 x_7 * x_72 - 2.0 x_8 * x_1 - 2.5 x_8 * x_6 + 12.5 x_8 * x_9 + 18.0 x_8 * x_10 - 19.5 x_8 * x_11 - 23.5 x_8 * x_17 + 21.5 x_8 * x_19 - 12.5 x_8 * x_26 + 2.0 x_8 * x_27 + 2.5 x_8 * x_31 + 10.5 x_8 * x_35 - 5.0 x_8 * x_37 - 1.5 x_8 * x_38 + 18.5 x_8 * x_39 - 2.5 x_8 * x_47 + 14.5 x_8 * x_52 + 8.5 x_8 * x_54 + 13.5 x_8 * x_56 - 17.5 x_8 * x_61 - 0.5 x_8 * x_70 - 22.5 x_8 * x_72 + 1.0 x_8 * x_80 - 19.0 x_9 * x_1 - 0.5 x_9 * x_2 - 6.0 x_9 * x_7 + 12.5 x_9 * x_8 - 17.5 x_9 * x_9 + 13.5 x_9 * x_13 + 4.0 x_9 * x_15 - 2.0 x_9 * x_16 + 7.5 x_9 * x_23 + 3.5 x_9 * x_26 + 24.5 x_9 * x_27 + 21.5 x_9 * x_31 - 21.5 x_9 * x_37 + 23.5 x_9 * x_39 - 17.0 x_9 * x_44 + 21.5 x_9 * x_45 + 2.5 x_9 * x_49 + 9.0 x_9 * x_51 - 22.0 x_9 * x_57 - 4.5 x_9 * x_60 - 4.0 x_9 * x_62 - 12.5 x_9 * x_64 + 21.5 x_9 * x_79 + 3.5 x_10 * x_7 + 18.0 x_10 * x_8 - 8.5 x_10 * x_19 + 3.0 x_10 * x_23 + 24.5 x_10 * x_25 - 17.0 x_10 * x_33 - 23.5 x_10 * x_34 + 4.5 x_10 * x_44 + 0.5 x_10 * x_49 + 12.5 x_10 * x_50 - 5.5 x_10 * x_51 + 18.5 x_10 * x_54 - 10.0 x_10 * x_62 + 15.5 x_10 * x_63 + 20.0 x_10 * x_67 + 12.0 x_10 * x_69 + 15.5 x_10 * x_76 - 12.5 x_10 * x_78 + 1.5 x_11 * x_3 + 24.5 x_11 * x_7 - 19.5 x_11 * x_8 + 6.5 x_11 * x_12 - 0.5 x_11 * x_13 + 9.5 x_11 * x_20 + 21.0 x_11 * x_24 + 11.5 x_11 * x_25 + 4.0 x_11 * x_26 - 1.5 x_11 * x_28 + 8.0 x_11 * x_29 - 10.0 x_11 * x_30 + 9.5 x_11 * x_31 + 8.0 x_11 * x_45 + 14.5 x_11 * x_54 + 11.0 x_11 * x_60 - 16.5 x_11 * x_67 + 0.5 x_11 * x_68 - 17.5 x_11 * x_71 + 16.0 x_12 * x_1 + 15.0 x_12 * x_4 - 16.5 x_12 * x_6 + 6.5 x_12 * x_11 - 9.5 x_12 * x_15 + 20.5 x_12 * x_17 + 7.0 x_12 * x_21 - 1.5 x_12 * x_26 - 13.0 x_12 * x_27 - 12.5 x_12 * x_28 - 9.5 x_12 * x_29 - 8.5 x_12 * x_36 + 24.5 x_12 * x_46 - 24.0 x_12 * x_48 + 13.5 x_12 * x_50 - 6.0 x_12 * x_57 + 10.0 x_12 * x_59 + 12.0 x_12 * x_62 - 1.0 x_12 * x_76 + 2.0 x_12 * x_79 + 7.5 x_12 * x_80 - 21.5 x_13 * x_2 - 19.0 x_13 * x_3 + 13.5 x_13 * x_9 - 0.5 x_13 * x_11 - 12.0 x_13 * x_16 - 4.5 x_13 * x_20 + 22.5 x_13 * x_25 - 11.0 x_13 * x_28 - 0.5 x_13 * x_30 - 23.5 x_13 * x_36 + 19.5 x_13 * x_47 + 23.0 x_13 * x_48 - 1.0 x_13 * x_50 + 6.5 x_13 * x_57 + 1.0 x_13 * x_60 + 12.5 x_13 * x_65 - 7.0 x_13 * x_66 + 5.0 x_13 * x_67 + 23.5 x_13 * x_75 - 6.0 x_13 * x_76 + 20.0 x_13 * x_77 - 23.5 x_13 * x_80 - 12.5 x_14 * x_1 + 21.5 x_14 * x_5 - 12.0 x_14 * x_15 - 20.0 x_14 * x_16 - 16.5 x_14 * x_18 - 17.5 x_14 * x_20 - 12.5 x_14 * x_23 + 18.5 x_14 * x_24 - 17.0 x_14 * x_27 - 16.5 x_14 * x_28 - 17.5 x_14 * x_31 - 2.5 x_14 * x_32 - 20.0 x_14 * x_33 + 8.5 x_14 * x_39 + 19.0 x_14 * x_43 + 12.0 x_14 * x_44 - 14.0 x_14 * x_49 + 12.0 x_14 * x_50 - 4.5 x_14 * x_58 - 2.5 x_14 * x_61 + 23.0 x_14 * x_62 + 17.5 x_14 * x_68 + 20.0 x_14 * x_77 + 4.0 x_15 * x_9 - 9.5 x_15 * x_12 - 12.0 x_15 * x_14 + 21.5 x_15 * x_18 + 23.0 x_15 * x_21 + 19.5 x_15 * x_25 + 21.5 x_15 * x_32 - 5.0 x_15 * x_35 - 23.5 x_15 * x_43 + 23.0 x_15 * x_44 + 4.5 x_15 * x_47 - 17.5 x_15 * x_51 + 20.5 x_15 * x_61 - 6.0 x_15 * x_62 - 14.5 x_15 * x_66 - 8.5 x_15 * x_67 + 3.5 x_15 * x_69 + 2.0 x_15 * x_73 - 17.5 x_15 * x_76 + 18.0 x_15 * x_80 + 16.5 x_16 * x_4 + 15.5 x_16 * x_6 - 2.0 x_16 * x_9 - 12.0 x_16 * x_13 - 20.0 x_16 * x_14 - 17.0 x_16 * x_18 + 24.5 x_16 * x_19 - 4.5 x_16 * x_24 + 3.5 x_16 * x_25 + 20.5 x_16 * x_29 + 7.0 x_16 * x_31 + 23.0 x_16 * x_34 + 15.0 x_16 * x_35 + 3.5 x_16 * x_37 - 2.0 x_16 * x_41 + 5.5 x_16 * x_42 + 3.5 x_16 * x_44 - 10.0 x_16 * x_47 + 11.5 x_16 * x_49 + 13.0 x_16 * x_50 - 6.0 x_16 * x_75 - 4.5 x_16 * x_76 + 9.0 x_17 * x_1 - 23.5 x_17 * x_8 + 20.5 x_17 * x_12 - 7.0 x_17 * x_18 + 17.5 x_17 * x_25 - 23.0 x_17 * x_29 + 12.5 x_17 * x_31 - 4.5 x_17 * x_32 + 11.0 x_17 * x_34 - 0.5 x_17 * x_43 + 23.0 x_17 * x_47 - 13.5 x_17 * x_49 + 22.0 x_17 * x_52 + 22.0 x_17 * x_59 - 7.5 x_17 * x_60 + 7.0 x_17 * x_62 + 19.5 x_17 * x_68 + 7.0 x_17 * x_75 - 11.5 x_18 * x_2 - 9.0 x_18 * x_6 - 16.5 x_18 * x_14 + 21.5 x_18 * x_15 - 17.0 x_18 * x_16 - 7.0 x_18 * x_17 - 14.0 x_18 * x_18 - 17.5 x_18 * x_20 + 20.5 x_18 * x_24 + 17.0 x_18 * x_38 + 24.0 x_18 * x_41 + 2.5 x_18 * x_44 - 13.0 x_18 * x_48 - 16.0 x_18 * x_50 - 4.0 x_18 * x_51 + 23.5 x_18 * x_68 + 21.5 x_19 * x_8 - 8.5 x_19 * x_10 + 24.5 x_19 * x_16 - 13.5 x_19 * x_20 - 21.5 x_19 * x_25 + 19.5 x_19 * x_30 - 23.0 x_19 * x_31 - 18.5 x_19 * x_33 + 23.0 x_19 * x_51 - 4.0 x_19 * x_64 + 17.0 x_19 * x_66 + 6.0 x_19 * x_68 - 19.0 x_19 * x_72 - 17.0 x_19 * x_79 - 2.5 x_20 * x_5 + 12.5 x_20 * x_6 + 9.5 x_20 * x_11 - 4.5 x_20 * x_13 - 17.5 x_20 * x_14 - 17.5 x_20 * x_18 - 13.5 x_20 * x_19 - 23.5 x_20 * x_20 + 22.5 x_20 * x_25 + 6.5 x_20 * x_35 + 11.5 x_20 * x_37 - 18.0 x_20 * x_43 + 16.0 x_20 * x_44 - 7.5 x_20 * x_49 + 0.5 x_20 * x_51 + 5.5 x_20 * x_57 - 5.0 x_20 * x_69 - 8.0 x_20 * x_72 - 4.5 x_20 * x_75 - 18.0 x_21 * x_5 + 20.5 x_21 * x_7 + 7.0 x_21 * x_12 + 23.0 x_21 * x_15 - 14.5 x_21 * x_22 + 24.5 x_21 * x_27 + 5.0 x_21 * x_34 - 1.0 x_21 * x_37 - 23.0 x_21 * x_40 + 20.5 x_21 * x_44 + 2.5 x_21 * x_50 - 11.5 x_21 * x_53 - 18.5 x_21 * x_55 - 3.5 x_21 * x_68 + 13.5 x_21 * x_72 + 22.5 x_21 * x_73 - 14.0 x_21 * x_74 + 21.5 x_21 * x_79 + 10.0 x_22 * x_1 + 3.5 x_22 * x_6 - 14.5 x_22 * x_21 + 10.0 x_22 * x_22 - 5.5 x_22 * x_24 - 5.5 x_22 * x_29 - 6.0 x_22 * x_40 - 13.0 x_22 * x_44 + 8.0 x_22 * x_45 + 20.0 x_22 * x_47 + 8.5 x_22 * x_48 + 4.5 x_22 * x_53 + 15.0 x_22 * x_55 - 4.5 x_22 * x_59 - 23.5 x_22 * x_60 - 22.5 x_22 * x_63 - 11.0 x_22 * x_72 - 3.0 x_23 * x_1 + 4.5 x_23 * x_3 - 20.5 x_23 * x_5 + 23.5 x_23 * x_6 + 22.0 x_23 * x_7 + 7.5 x_23 * x_9 + 3.0 x_23 * x_10 - 12.5 x_23 * x_14 - 24.5 x_23 * x_26 + 7.0 x_23 * x_29 + 10.5 x_23 * x_34 + 14.0 x_23 * x_35 + 18.5 x_23 * x_36 - 10.5 x_23 * x_38 + 20.5 x_23 * x_44 + 19.5 x_23 * x_45 + 2.0 x_23 * x_49 + 4.0 x_23 * x_55 + 9.0 x_23 * x_58 + 16.0 x_23 * x_59 - 5.5 x_23 * x_65 - 7.0 x_23 * x_67 + 11.5 x_23 * x_72 - 22.0 x_23 * x_74 - 10.5 x_23 * x_78 + 11.5 x_23 * x_80 - 20.5 x_24 * x_5 + 22.5 x_24 * x_6 + 21.0 x_24 * x_11 + 18.5 x_24 * x_14 - 4.5 x_24 * x_16 + 20.5 x_24 * x_18 - 5.5 x_24 * x_22 + 10.5 x_24 * x_25 + 15.0 x_24 * x_26 - 12.0 x_24 * x_29 - 21.5 x_24 * x_34 + 12.0 x_24 * x_38 + 7.5 x_24 * x_44 - 1.5 x_24 * x_45 - 4.0 x_24 * x_47 - 16.5 x_24 * x_48 + 3.0 x_24 * x_49 + 8.0 x_24 * x_50 + 17.5 x_24 * x_61 + 1.0 x_24 * x_64 - 22.0 x_24 * x_67 + 9.5 x_24 * x_76 + 20.5 x_24 * x_78 + 12.5 x_25 * x_2 + 24.5 x_25 * x_10 + 11.5 x_25 * x_11 + 22.5 x_25 * x_13 + 19.5 x_25 * x_15 + 3.5 x_25 * x_16 + 17.5 x_25 * x_17 - 21.5 x_25 * x_19 + 22.5 x_25 * x_20 + 10.5 x_25 * x_24 + 17.0 x_25 * x_34 + 2.0 x_25 * x_35 + 10.5 x_25 * x_38 + 15.0 x_25 * x_53 + 1.0 x_25 * x_62 + 6.0 x_25 * x_65 - 9.0 x_26 * x_2 - 12.5 x_26 * x_8 + 3.5 x_26 * x_9 + 4.0 x_26 * x_11 - 1.5 x_26 * x_12 - 24.5 x_26 * x_23 + 15.0 x_26 * x_24 + 13.5 x_26 * x_26 - 12.5 x_26 * x_27 - 15.0 x_26 * x_35 - 15.0 x_26 * x_37 + 10.5 x_26 * x_38 - 18.5 x_26 * x_52 - 3.5 x_26 * x_54 + 7.5 x_26 * x_67 - 1.0 x_26 * x_68 + 13.5 x_26 * x_70 + 6.0 x_26 * x_76 - 3.5 x_27 * x_4 + 2.0 x_27 * x_8 + 24.5 x_27 * x_9 - 13.0 x_27 * x_12 - 17.0 x_27 * x_14 + 24.5 x_27 * x_21 - 12.5 x_27 * x_26 + 2.5 x_27 * x_27 + 21.5 x_27 * x_29 + 12.5 x_27 * x_33 + 19.0 x_27 * x_35 - 18.0 x_27 * x_36 + 20.5 x_27 * x_41 + 3.0 x_27 * x_43 - 5.5 x_27 * x_44 - 20.0 x_27 * x_46 - 14.5 x_27 * x_47 + 3.0 x_27 * x_48 + 8.5 x_27 * x_53 - 18.5 x_27 * x_64 - 4.0 x_27 * x_71 - 24.0 x_27 * x_72 + 15.5 x_27 * x_73 - 23.0 x_27 * x_75 + 22.5 x_28 * x_1 - 1.5 x_28 * x_11 - 12.5 x_28 * x_12 - 11.0 x_28 * x_13 - 16.5 x_28 * x_14 + 4.5 x_28 * x_29 - 13.0 x_28 * x_32 - 14.0 x_28 * x_45 - 13.5 x_28 * x_48 + 22.0 x_28 * x_50 + 2.5 x_28 * x_56 + 18.5 x_28 * x_64 - 10.5 x_28 * x_77 - 24.0 x_28 * x_79 + 18.0 x_28 * x_80 + 8.0 x_29 * x_11 - 9.5 x_29 * x_12 + 20.5 x_29 * x_16 - 23.0 x_29 * x_17 - 5.5 x_29 * x_22 + 7.0 x_29 * x_23 - 12.0 x_29 * x_24 + 21.5 x_29 * x_27 + 4.5 x_29 * x_28 - 18.5 x_29 * x_31 + 20.0 x_29 * x_36 + 13.5 x_29 * x_39 + 13.0 x_29 * x_50 - 10.0 x_29 * x_52 - 24.0 x_29 * x_53 - 14.0 x_29 * x_56 - 4.0 x_29 * x_58 - 7.5 x_29 * x_63 + 20.5 x_29 * x_72 + 19.5 x_29 * x_75 - 14.0 x_29 * x_79 + 20.5 x_30 * x_4 - 10.0 x_30 * x_11 - 0.5 x_30 * x_13 + 19.5 x_30 * x_19 + 18.0 x_30 * x_38 - 5.5 x_30 * x_39 - 7.0 x_30 * x_43 - 18.0 x_30 * x_49 + 8.5 x_30 * x_50 + 6.5 x_30 * x_63 - 15.5 x_30 * x_66 + 15.5 x_30 * x_72 - 24.0 x_30 * x_73 + 2.5 x_31 * x_8 + 21.5 x_31 * x_9 + 9.5 x_31 * x_11 - 17.5 x_31 * x_14 + 7.0 x_31 * x_16 + 12.5 x_31 * x_17 - 23.0 x_31 * x_19 - 18.5 x_31 * x_29 - 19.5 x_31 * x_31 - 4.5 x_31 * x_36 - 17.0 x_31 * x_39 - 4.0 x_31 * x_43 + 6.0 x_31 * x_56 - 23.5 x_31 * x_58 + 7.0 x_31 * x_60 - 7.5 x_31 * x_61 + 11.0 x_31 * x_63 + 14.5 x_31 * x_66 - 18.5 x_31 * x_67 - 15.0 x_31 * x_72 + 14.5 x_31 * x_79 + 5.0 x_32 * x_2 - 6.0 x_32 * x_3 - 2.5 x_32 * x_14 + 21.5 x_32 * x_15 - 4.5 x_32 * x_17 - 13.0 x_32 * x_28 - 6.5 x_32 * x_34 - 4.0 x_32 * x_36 - 21.5 x_32 * x_39 - 6.0 x_32 * x_42 + 24.0 x_32 * x_44 + 6.0 x_32 * x_45 + 8.0 x_32 * x_49 - 18.0 x_32 * x_51 - 10.5 x_32 * x_53 - 19.5 x_32 * x_58 + 21.0 x_32 * x_64 + 4.0 x_32 * x_67 - 13.0 x_32 * x_68 - 5.5 x_32 * x_76 + 12.5 x_32 * x_77 - 6.5 x_32 * x_78 - 17.0 x_33 * x_10 - 20.0 x_33 * x_14 - 18.5 x_33 * x_19 + 12.5 x_33 * x_27 + 1.5 x_33 * x_33 - 1.5 x_33 * x_34 - 2.0 x_33 * x_36 - 15.0 x_33 * x_40 + 11.5 x_33 * x_44 - 10.5 x_33 * x_64 - 0.5 x_33 * x_65 + 6.5 x_33 * x_68 - 14.5 x_33 * x_77 + 5.5 x_33 * x_80 - 23.0 x_34 * x_2 + 12.5 x_34 * x_5 + 6.5 x_34 * x_6 - 23.5 x_34 * x_10 + 23.0 x_34 * x_16 + 11.0 x_34 * x_17 + 5.0 x_34 * x_21 + 10.5 x_34 * x_23 - 21.5 x_34 * x_24 + 17.0 x_34 * x_25 - 6.5 x_34 * x_32 - 1.5 x_34 * x_33 + 6.0 x_34 * x_34 - 5.5 x_34 * x_36 + 2.5 x_34 * x_39 - 17.5 x_34 * x_42 + 18.0 x_34 * x_45 + 1.0 x_34 * x_46 - 1.5 x_34 * x_48 - 15.5 x_34 * x_60 - 6.5 x_34 * x_66 - 4.0 x_34 * x_70 + 7.0 x_34 * x_71 + 15.5 x_34 * x_77 + 20.5 x_35 * x_2 + 9.0 x_35 * x_7 + 10.5 x_35 * x_8 - 5.0 x_35 * x_15 + 15.0 x_35 * x_16 + 6.5 x_35 * x_20 + 14.0 x_35 * x_23 + 2.0 x_35 * x_25 - 15.0 x_35 * x_26 + 19.0 x_35 * x_27 - 18.5 x_35 * x_35 - 11.0 x_35 * x_38 - 18.0 x_35 * x_39 + 9.0 x_35 * x_52 - 18.5 x_35 * x_60 - 4.5 x_35 * x_61 + 22.5 x_35 * x_62 - 19.5 x_36 * x_6 - 8.5 x_36 * x_12 - 23.5 x_36 * x_13 + 18.5 x_36 * x_23 - 18.0 x_36 * x_27 + 20.0 x_36 * x_29 - 4.5 x_36 * x_31 - 4.0 x_36 * x_32 - 2.0 x_36 * x_33 - 5.5 x_36 * x_34 - 21.0 x_36 * x_38 - 24.0 x_36 * x_44 + 2.5 x_36 * x_45 - 24.5 x_36 * x_47 - 1.5 x_36 * x_49 + 11.5 x_36 * x_55 + 18.0 x_36 * x_67 + 5.5 x_36 * x_73 - 8.0 x_36 * x_74 - 15.5 x_36 * x_76 + 7.5 x_36 * x_79 - 9.5 x_37 * x_6 - 5.0 x_37 * x_8 - 21.5 x_37 * x_9 + 3.5 x_37 * x_16 + 11.5 x_37 * x_20 - 1.0 x_37 * x_21 - 15.0 x_37 * x_26 - 6.0 x_37 * x_38 - 22.5 x_37 * x_44 - 3.5 x_37 * x_46 + 22.0 x_37 * x_49 + 22.5 x_37 * x_53 - 5.0 x_37 * x_54 + 5.5 x_37 * x_58 - 22.5 x_37 * x_59 + 21.0 x_37 * x_62 - 24.5 x_37 * x_63 - 17.0 x_37 * x_64 - 8.0 x_37 * x_66 + 5.0 x_37 * x_68 - 11.5 x_37 * x_69 + 10.5 x_37 * x_70 + 4.5 x_37 * x_73 + 21.0 x_37 * x_75 - 8.5 x_38 * x_3 - 4.5 x_38 * x_5 + 1.0 x_38 * x_7 - 1.5 x_38 * x_8 + 17.0 x_38 * x_18 - 10.5 x_38 * x_23 + 12.0 x_38 * x_24 + 10.5 x_38 * x_25 + 10.5 x_38 * x_26 + 18.0 x_38 * x_30 - 11.0 x_38 * x_35 - 21.0 x_38 * x_36 - 6.0 x_38 * x_37 + 7.5 x_38 * x_46 + 10.5 x_38 * x_48 - 18.5 x_38 * x_54 + 24.0 x_38 * x_55 + 5.5 x_38 * x_56 - 4.0 x_38 * x_57 - 9.5 x_38 * x_60 - 12.0 x_38 * x_70 + 14.5 x_38 * x_78 + 20.5 x_38 * x_79 + 14.0 x_39 * x_1 - 7.0 x_39 * x_5 + 18.5 x_39 * x_8 + 23.5 x_39 * x_9 + 8.5 x_39 * x_14 + 13.5 x_39 * x_29 - 5.5 x_39 * x_30 - 17.0 x_39 * x_31 - 21.5 x_39 * x_32 + 2.5 x_39 * x_34 - 18.0 x_39 * x_35 - 24.5 x_39 * x_39 - 8.0 x_39 * x_42 - 18.5 x_39 * x_44 + 1.5 x_39 * x_48 - 6.0 x_39 * x_50 - 5.0 x_39 * x_54 + 11.0 x_39 * x_65 + 11.0 x_39 * x_67 - 22.0 x_39 * x_80 - 10.5 x_40 * x_2 - 19.5 x_40 * x_7 - 23.0 x_40 * x_21 - 6.0 x_40 * x_22 - 15.0 x_40 * x_33 + 22.0 x_40 * x_46 + 8.0 x_40 * x_47 + 15.5 x_40 * x_51 - 0.5 x_40 * x_62 + 2.5 x_40 * x_63 - 13.5 x_40 * x_69 + 6.5 x_40 * x_76 - 11.0 x_41 * x_3 - 2.0 x_41 * x_16 + 24.0 x_41 * x_18 + 20.5 x_41 * x_27 - 4.0 x_41 * x_43 + 19.0 x_41 * x_50 + 3.0 x_41 * x_55 + 7.5 x_41 * x_57 + 5.0 x_41 * x_58 + 8.0 x_41 * x_60 - 6.0 x_41 * x_66 + 1.0 x_41 * x_67 + 10.5 x_41 * x_69 - 20.5 x_41 * x_72 - 15.5 x_41 * x_75 + 1.0 x_41 * x_77 + 16.5 x_41 * x_78 - 21.0 x_42 * x_1 + 4.0 x_42 * x_3 - 6.5 x_42 * x_5 + 5.5 x_42 * x_16 - 6.0 x_42 * x_32 - 17.5 x_42 * x_34 - 8.0 x_42 * x_39 + 0.5 x_42 * x_45 - 22.0 x_42 * x_51 + 4.0 x_42 * x_56 - 7.0 x_42 * x_58 + 1.0 x_42 * x_61 - 5.0 x_42 * x_64 + 17.0 x_42 * x_68 + 21.0 x_42 * x_74 + 1.0 x_42 * x_75 + 19.0 x_43 * x_14 - 23.5 x_43 * x_15 - 0.5 x_43 * x_17 - 18.0 x_43 * x_20 + 3.0 x_43 * x_27 - 7.0 x_43 * x_30 - 4.0 x_43 * x_31 - 4.0 x_43 * x_41 - 9.0 x_43 * x_50 + 3.0 x_43 * x_54 + 14.0 x_43 * x_60 + 14.0 x_43 * x_74 + 2.5 x_43 * x_75 + 8.0 x_43 * x_76 + 2.0 x_43 * x_78 + 8.0 x_44 * x_3 + 13.5 x_44 * x_4 - 17.0 x_44 * x_9 + 4.5 x_44 * x_10 + 12.0 x_44 * x_14 + 23.0 x_44 * x_15 + 3.5 x_44 * x_16 + 2.5 x_44 * x_18 + 16.0 x_44 * x_20 + 20.5 x_44 * x_21 - 13.0 x_44 * x_22 + 20.5 x_44 * x_23 + 7.5 x_44 * x_24 - 5.5 x_44 * x_27 + 24.0 x_44 * x_32 + 11.5 x_44 * x_33 - 24.0 x_44 * x_36 - 22.5 x_44 * x_37 - 18.5 x_44 * x_39 - 13.0 x_44 * x_48 - 22.0 x_44 * x_50 - 18.0 x_44 * x_54 + 3.0 x_44 * x_57 + 12.5 x_44 * x_58 - 14.0 x_44 * x_65 + 10.0 x_45 * x_2 - 22.5 x_45 * x_7 + 21.5 x_45 * x_9 + 8.0 x_45 * x_11 + 8.0 x_45 * x_22 + 19.5 x_45 * x_23 - 1.5 x_45 * x_24 - 14.0 x_45 * x_28 + 6.0 x_45 * x_32 + 18.0 x_45 * x_34 + 2.5 x_45 * x_36 + 0.5 x_45 * x_42 + 6.0 x_45 * x_53 - 4.0 x_45 * x_57 + 23.5 x_45 * x_67 - 3.5 x_45 * x_77 - 20.5 x_45 * x_79 - 1.0 x_45 * x_80 - 18.0 x_46 * x_3 + 24.5 x_46 * x_12 - 20.0 x_46 * x_27 + 1.0 x_46 * x_34 - 3.5 x_46 * x_37 + 7.5 x_46 * x_38 + 22.0 x_46 * x_40 + 5.5 x_46 * x_46 - 12.0 x_46 * x_48 + 24.5 x_46 * x_60 + 3.0 x_46 * x_61 + 6.0 x_46 * x_62 - 22.5 x_46 * x_63 + 21.0 x_46 * x_68 - 18.5 x_46 * x_71 + 9.5 x_46 * x_77 - 23.5 x_46 * x_79 + 24.5 x_47 * x_1 + 10.5 x_47 * x_5 - 2.5 x_47 * x_8 + 19.5 x_47 * x_13 + 4.5 x_47 * x_15 - 10.0 x_47 * x_16 + 23.0 x_47 * x_17 + 20.0 x_47 * x_22 - 4.0 x_47 * x_24 - 14.5 x_47 * x_27 - 24.5 x_47 * x_36 + 8.0 x_47 * x_40 + 17.0 x_47 * x_52 - 15.5 x_47 * x_59 - 20.5 x_47 * x_61 + 3.0 x_47 * x_69 - 18.5 x_47 * x_74 - 23.0 x_47 * x_77 + 2.0 x_47 * x_79 + 3.0 x_48 * x_1 - 12.5 x_48 * x_4 - 17.5 x_48 * x_5 - 24.0 x_48 * x_12 + 23.0 x_48 * x_13 - 13.0 x_48 * x_18 + 8.5 x_48 * x_22 - 16.5 x_48 * x_24 + 3.0 x_48 * x_27 - 13.5 x_48 * x_28 - 1.5 x_48 * x_34 + 10.5 x_48 * x_38 + 1.5 x_48 * x_39 - 13.0 x_48 * x_44 - 12.0 x_48 * x_46 - 10.0 x_48 * x_53 + 17.5 x_48 * x_58 - 21.0 x_48 * x_63 - 4.5 x_48 * x_69 - 14.0 x_48 * x_71 - 22.5 x_48 * x_73 + 17.0 x_48 * x_80 - 0.5 x_49 * x_1 + 14.0 x_49 * x_6 + 2.5 x_49 * x_9 + 0.5 x_49 * x_10 - 14.0 x_49 * x_14 + 11.5 x_49 * x_16 - 13.5 x_49 * x_17 - 7.5 x_49 * x_20 + 2.0 x_49 * x_23 + 3.0 x_49 * x_24 - 18.0 x_49 * x_30 + 8.0 x_49 * x_32 - 1.5 x_49 * x_36 + 22.0 x_49 * x_37 + 9.5 x_49 * x_57 + 15.5 x_49 * x_58 - 7.0 x_49 * x_65 - 4.0 x_49 * x_66 + 1.5 x_49 * x_69 - 15.0 x_49 * x_73 - 20.5 x_49 * x_75 - 5.5 x_49 * x_77 - 7.0 x_49 * x_79 - 15.0 x_49 * x_80 - 2.5 x_50 * x_2 + 4.0 x_50 * x_5 - 20.5 x_50 * x_7 + 12.5 x_50 * x_10 + 13.5 x_50 * x_12 - 1.0 x_50 * x_13 + 12.0 x_50 * x_14 + 13.0 x_50 * x_16 - 16.0 x_50 * x_18 + 2.5 x_50 * x_21 + 8.0 x_50 * x_24 + 22.0 x_50 * x_28 + 13.0 x_50 * x_29 + 8.5 x_50 * x_30 - 6.0 x_50 * x_39 + 19.0 x_50 * x_41 - 9.0 x_50 * x_43 - 22.0 x_50 * x_44 - 19.5 x_50 * x_50 - 24.5 x_50 * x_51 + 9.5 x_50 * x_52 + 1.5 x_50 * x_53 + 9.5 x_50 * x_56 + 21.0 x_50 * x_59 - 3.0 x_50 * x_70 - 22.5 x_50 * x_75 + 9.0 x_51 * x_9 - 5.5 x_51 * x_10 - 17.5 x_51 * x_15 - 4.0 x_51 * x_18 + 23.0 x_51 * x_19 + 0.5 x_51 * x_20 - 18.0 x_51 * x_32 + 15.5 x_51 * x_40 - 22.0 x_51 * x_42 - 24.5 x_51 * x_50 - 11.0 x_51 * x_53 - 18.0 x_51 * x_55 + 7.5 x_51 * x_57 - 5.5 x_51 * x_58 - 8.5 x_51 * x_59 + 16.5 x_51 * x_61 + 15.0 x_51 * x_62 - 6.5 x_51 * x_64 + 7.5 x_51 * x_67 - 11.5 x_51 * x_68 + 0.5 x_51 * x_73 + 16.5 x_51 * x_76 + 15.5 x_52 * x_4 + 14.5 x_52 * x_8 + 22.0 x_52 * x_17 - 18.5 x_52 * x_26 - 10.0 x_52 * x_29 + 9.0 x_52 * x_35 + 17.0 x_52 * x_47 + 9.5 x_52 * x_50 - 3.5 x_52 * x_54 - 1.0 x_52 * x_56 + 8.5 x_52 * x_57 + 8.0 x_52 * x_59 - 24.5 x_52 * x_63 + 16.5 x_52 * x_64 + 5.5 x_52 * x_66 + 3.0 x_52 * x_72 + 4.5 x_52 * x_73 - 20.0 x_52 * x_75 + 4.0 x_52 * x_76 - 21.5 x_52 * x_79 + 14.0 x_53 * x_7 - 11.5 x_53 * x_21 + 4.5 x_53 * x_22 + 15.0 x_53 * x_25 + 8.5 x_53 * x_27 - 24.0 x_53 * x_29 - 10.5 x_53 * x_32 + 22.5 x_53 * x_37 + 6.0 x_53 * x_45 - 10.0 x_53 * x_48 + 1.5 x_53 * x_50 - 11.0 x_53 * x_51 - 20.5 x_53 * x_53 - 12.5 x_53 * x_56 - 15.0 x_53 * x_58 + 19.5 x_53 * x_59 - 1.0 x_53 * x_61 - 22.0 x_53 * x_62 - 1.5 x_53 * x_63 - 5.0 x_53 * x_64 + 9.0 x_53 * x_65 + 14.0 x_53 * x_70 - 17.0 x_54 * x_4 + 19.0 x_54 * x_6 + 8.5 x_54 * x_8 + 18.5 x_54 * x_10 + 14.5 x_54 * x_11 - 3.5 x_54 * x_26 - 5.0 x_54 * x_37 - 18.5 x_54 * x_38 - 5.0 x_54 * x_39 + 3.0 x_54 * x_43 - 18.0 x_54 * x_44 - 3.5 x_54 * x_52 + 16.0 x_54 * x_65 - 9.0 x_54 * x_67 + 23.0 x_54 * x_68 + 19.5 x_54 * x_70 - 3.5 x_54 * x_76 - 17.5 x_54 * x_78 - 5.0 x_54 * x_80 - 17.0 x_55 * x_5 - 1.5 x_55 * x_6 - 21.0 x_55 * x_7 - 18.5 x_55 * x_21 + 15.0 x_55 * x_22 + 4.0 x_55 * x_23 + 11.5 x_55 * x_36 + 24.0 x_55 * x_38 + 3.0 x_55 * x_41 - 18.0 x_55 * x_51 + 18.0 x_55 * x_64 - 11.0 x_55 * x_68 + 23.5 x_55 * x_79 + 8.0 x_56 * x_1 + 3.0 x_56 * x_2 + 0.5 x_56 * x_3 + 9.0 x_56 * x_4 + 8.0 x_56 * x_5 + 13.5 x_56 * x_8 + 2.5 x_56 * x_28 - 14.0 x_56 * x_29 + 6.0 x_56 * x_31 + 5.5 x_56 * x_38 + 4.0 x_56 * x_42 + 9.5 x_56 * x_50 - 1.0 x_56 * x_52 - 12.5 x_56 * x_53 + 24.0 x_56 * x_56 - 7.5 x_56 * x_58 - 24.0 x_56 * x_64 - 22.0 x_56 * x_65 + 6.0 x_56 * x_67 + 6.0 x_56 * x_68 + 7.0 x_56 * x_71 + 18.0 x_56 * x_74 - 22.5 x_56 * x_76 - 9.0 x_57 * x_3 - 22.0 x_57 * x_9 - 6.0 x_57 * x_12 + 6.5 x_57 * x_13 + 5.5 x_57 * x_20 - 4.0 x_57 * x_38 + 7.5 x_57 * x_41 + 3.0 x_57 * x_44 - 4.0 x_57 * x_45 + 9.5 x_57 * x_49 + 7.5 x_57 * x_51 + 8.5 x_57 * x_52 - 3.0 x_57 * x_57 + 4.5 x_57 * x_58 - 14.5 x_57 * x_64 - 12.5 x_57 * x_68 + 10.5 x_57 * x_70 - 9.0 x_57 * x_71 - 22.0 x_57 * x_78 + 20.5 x_58 * x_1 - 21.0 x_58 * x_5 - 4.5 x_58 * x_14 + 9.0 x_58 * x_23 - 4.0 x_58 * x_29 - 23.5 x_58 * x_31 - 19.5 x_58 * x_32 + 5.5 x_58 * x_37 + 5.0 x_58 * x_41 - 7.0 x_58 * x_42 + 12.5 x_58 * x_44 + 17.5 x_58 * x_48 + 15.5 x_58 * x_49 - 5.5 x_58 * x_51 - 15.0 x_58 * x_53 - 7.5 x_58 * x_56 + 4.5 x_58 * x_57 - 12.5 x_58 * x_65 - 19.5 x_58 * x_76 - 4.0 x_59 * x_5 + 10.0 x_59 * x_12 + 22.0 x_59 * x_17 - 4.5 x_59 * x_22 + 16.0 x_59 * x_23 - 22.5 x_59 * x_37 - 15.5 x_59 * x_47 + 21.0 x_59 * x_50 - 8.5 x_59 * x_51 + 8.0 x_59 * x_52 + 19.5 x_59 * x_53 - 14.5 x_59 * x_64 + 13.5 x_59 * x_71 - 2.5 x_59 * x_79 - 8.0 x_60 * x_4 - 4.5 x_60 * x_9 + 11.0 x_60 * x_11 + 1.0 x_60 * x_13 - 7.5 x_60 * x_17 - 23.5 x_60 * x_22 + 7.0 x_60 * x_31 - 15.5 x_60 * x_34 - 18.5 x_60 * x_35 - 9.5 x_60 * x_38 + 8.0 x_60 * x_41 + 14.0 x_60 * x_43 + 24.5 x_60 * x_46 + 9.5 x_60 * x_61 + 6.0 x_60 * x_72 + 10.5 x_60 * x_77 + 18.0 x_60 * x_78 + 21.5 x_60 * x_79 + 21.5 x_61 * x_4 - 17.5 x_61 * x_8 - 2.5 x_61 * x_14 + 20.5 x_61 * x_15 + 17.5 x_61 * x_24 - 7.5 x_61 * x_31 - 4.5 x_61 * x_35 + 1.0 x_61 * x_42 + 3.0 x_61 * x_46 - 20.5 x_61 * x_47 + 16.5 x_61 * x_51 - 1.0 x_61 * x_53 + 9.5 x_61 * x_60 - 23.0 x_61 * x_65 - 1.0 x_61 * x_70 + 12.0 x_61 * x_73 - 16.0 x_62 * x_3 - 4.0 x_62 * x_9 - 10.0 x_62 * x_10 + 12.0 x_62 * x_12 + 23.0 x_62 * x_14 - 6.0 x_62 * x_15 + 7.0 x_62 * x_17 + 1.0 x_62 * x_25 + 22.5 x_62 * x_35 + 21.0 x_62 * x_37 - 0.5 x_62 * x_40 + 6.0 x_62 * x_46 + 15.0 x_62 * x_51 - 22.0 x_62 * x_53 + 23.0 x_62 * x_62 - 14.0 x_62 * x_70 + 23.5 x_62 * x_74 + 18.0 x_62 * x_76 - 24.5 x_62 * x_77 - 16.0 x_63 * x_3 - 14.0 x_63 * x_4 + 23.0 x_63 * x_7 + 15.5 x_63 * x_10 - 22.5 x_63 * x_22 - 7.5 x_63 * x_29 + 6.5 x_63 * x_30 + 11.0 x_63 * x_31 - 24.5 x_63 * x_37 + 2.5 x_63 * x_40 - 22.5 x_63 * x_46 - 21.0 x_63 * x_48 - 24.5 x_63 * x_52 - 1.5 x_63 * x_53 + 24.5 x_63 * x_76 + 4.0 x_64 * x_4 - 12.5 x_64 * x_9 - 4.0 x_64 * x_19 + 1.0 x_64 * x_24 - 18.5 x_64 * x_27 + 18.5 x_64 * x_28 + 21.0 x_64 * x_32 - 10.5 x_64 * x_33 - 17.0 x_64 * x_37 - 5.0 x_64 * x_42 - 6.5 x_64 * x_51 + 16.5 x_64 * x_52 - 5.0 x_64 * x_53 + 18.0 x_64 * x_55 - 24.0 x_64 * x_56 - 14.5 x_64 * x_57 - 14.5 x_64 * x_59 + 21.0 x_64 * x_67 + 6.5 x_64 * x_70 - 10.5 x_64 * x_71 - 24.5 x_64 * x_75 + 17.5 x_65 * x_5 + 22.5 x_65 * x_6 + 12.5 x_65 * x_13 - 5.5 x_65 * x_23 + 6.0 x_65 * x_25 - 0.5 x_65 * x_33 + 11.0 x_65 * x_39 - 14.0 x_65 * x_44 - 7.0 x_65 * x_49 + 9.0 x_65 * x_53 + 16.0 x_65 * x_54 - 22.0 x_65 * x_56 - 12.5 x_65 * x_58 - 23.0 x_65 * x_61 - 3.0 x_65 * x_66 - 18.0 x_66 * x_3 - 7.0 x_66 * x_13 - 14.5 x_66 * x_15 + 17.0 x_66 * x_19 - 15.5 x_66 * x_30 + 14.5 x_66 * x_31 - 6.5 x_66 * x_34 - 8.0 x_66 * x_37 - 6.0 x_66 * x_41 - 4.0 x_66 * x_49 + 5.5 x_66 * x_52 - 3.0 x_66 * x_65 - 16.0 x_66 * x_67 + 14.5 x_66 * x_76 + 18.0 x_66 * x_79 + 20.0 x_67 * x_10 - 16.5 x_67 * x_11 + 5.0 x_67 * x_13 - 8.5 x_67 * x_15 - 7.0 x_67 * x_23 - 22.0 x_67 * x_24 + 7.5 x_67 * x_26 - 18.5 x_67 * x_31 + 4.0 x_67 * x_32 + 18.0 x_67 * x_36 + 11.0 x_67 * x_39 + 1.0 x_67 * x_41 + 23.5 x_67 * x_45 + 7.5 x_67 * x_51 - 9.0 x_67 * x_54 + 6.0 x_67 * x_56 + 21.0 x_67 * x_64 - 16.0 x_67 * x_66 + 7.0 x_67 * x_68 + 24.0 x_67 * x_70 + 20.5 x_68 * x_1 + 22.5 x_68 * x_3 + 0.5 x_68 * x_11 + 17.5 x_68 * x_14 + 19.5 x_68 * x_17 + 23.5 x_68 * x_18 + 6.0 x_68 * x_19 - 3.5 x_68 * x_21 - 1.0 x_68 * x_26 - 13.0 x_68 * x_32 + 6.5 x_68 * x_33 + 5.0 x_68 * x_37 + 17.0 x_68 * x_42 + 21.0 x_68 * x_46 - 11.5 x_68 * x_51 + 23.0 x_68 * x_54 - 11.0 x_68 * x_55 + 6.0 x_68 * x_56 - 12.5 x_68 * x_57 + 7.0 x_68 * x_67 - 17.0 x_68 * x_68 - 15.5 x_68 * x_69 + 18.5 x_68 * x_70 - 11.5 x_68 * x_71 - 12.5 x_68 * x_77 + 12.0 x_69 * x_10 + 3.5 x_69 * x_15 - 5.0 x_69 * x_20 - 11.5 x_69 * x_37 - 13.5 x_69 * x_40 + 10.5 x_69 * x_41 + 3.0 x_69 * x_47 - 4.5 x_69 * x_48 + 1.5 x_69 * x_49 - 15.5 x_69 * x_68 + 24.0 x_69 * x_69 - 0.5 x_70 * x_8 + 13.5 x_70 * x_26 - 4.0 x_70 * x_34 + 10.5 x_70 * x_37 - 12.0 x_70 * x_38 - 3.0 x_70 * x_50 + 14.0 x_70 * x_53 + 19.5 x_70 * x_54 + 10.5 x_70 * x_57 - 1.0 x_70 * x_61 - 14.0 x_70 * x_62 + 6.5 x_70 * x_64 + 24.0 x_70 * x_67 + 18.5 x_70 * x_68 + 20.0 x_70 * x_74 - 6.5 x_70 * x_76 - 19.0 x_70 * x_77 - 17.5 x_71 * x_11 - 4.0 x_71 * x_27 + 7.0 x_71 * x_34 - 18.5 x_71 * x_46 - 14.0 x_71 * x_48 + 7.0 x_71 * x_56 - 9.0 x_71 * x_57 + 13.5 x_71 * x_59 - 10.5 x_71 * x_64 - 11.5 x_71 * x_68 + 7.5 x_71 * x_73 + 10.5 x_71 * x_76 - 16.5 x_71 * x_80 - 11.5 x_72 * x_1 + 24.0 x_72 * x_2 + 3.0 x_72 * x_7 - 22.5 x_72 * x_8 - 19.0 x_72 * x_19 - 8.0 x_72 * x_20 + 13.5 x_72 * x_21 - 11.0 x_72 * x_22 + 11.5 x_72 * x_23 - 24.0 x_72 * x_27 + 20.5 x_72 * x_29 + 15.5 x_72 * x_30 - 15.0 x_72 * x_31 - 20.5 x_72 * x_41 + 3.0 x_72 * x_52 + 6.0 x_72 * x_60 + 6.5 x_72 * x_73 + 13.5 x_72 * x_75 - 1.0 x_72 * x_77 - 2.0 x_73 * x_6 + 2.0 x_73 * x_15 + 22.5 x_73 * x_21 + 15.5 x_73 * x_27 - 24.0 x_73 * x_30 + 5.5 x_73 * x_36 + 4.5 x_73 * x_37 - 22.5 x_73 * x_48 - 15.0 x_73 * x_49 + 0.5 x_73 * x_51 + 4.5 x_73 * x_52 + 12.0 x_73 * x_61 + 7.5 x_73 * x_71 + 6.5 x_73 * x_72 + 4.0 x_73 * x_76 + 21.5 x_73 * x_77 + 20.5 x_74 * x_1 - 0.5 x_74 * x_4 - 14.0 x_74 * x_21 - 22.0 x_74 * x_23 - 8.0 x_74 * x_36 + 21.0 x_74 * x_42 + 14.0 x_74 * x_43 - 18.5 x_74 * x_47 + 18.0 x_74 * x_56 + 23.5 x_74 * x_62 + 20.0 x_74 * x_70 - 20.5 x_74 * x_75 - 0.5 x_74 * x_80 + 3.5 x_75 * x_1 + 16.0 x_75 * x_3 - 10.0 x_75 * x_6 + 23.5 x_75 * x_13 - 6.0 x_75 * x_16 + 7.0 x_75 * x_17 - 4.5 x_75 * x_20 - 23.0 x_75 * x_27 + 19.5 x_75 * x_29 + 21.0 x_75 * x_37 - 15.5 x_75 * x_41 + 1.0 x_75 * x_42 + 2.5 x_75 * x_43 - 20.5 x_75 * x_49 - 22.5 x_75 * x_50 - 20.0 x_75 * x_52 - 24.5 x_75 * x_64 + 13.5 x_75 * x_72 - 20.5 x_75 * x_74 + 0.5 x_75 * x_77 - 21.5 x_76 * x_6 + 15.5 x_76 * x_10 - 1.0 x_76 * x_12 - 6.0 x_76 * x_13 - 17.5 x_76 * x_15 - 4.5 x_76 * x_16 + 9.5 x_76 * x_24 + 6.0 x_76 * x_26 - 5.5 x_76 * x_32 - 15.5 x_76 * x_36 + 6.5 x_76 * x_40 + 8.0 x_76 * x_43 + 16.5 x_76 * x_51 + 4.0 x_76 * x_52 - 3.5 x_76 * x_54 - 22.5 x_76 * x_56 - 19.5 x_76 * x_58 + 18.0 x_76 * x_62 + 24.5 x_76 * x_63 + 14.5 x_76 * x_66 - 6.5 x_76 * x_70 + 10.5 x_76 * x_71 + 4.0 x_76 * x_73 + 24.0 x_76 * x_77 + 20.5 x_77 * x_1 + 20.0 x_77 * x_13 + 20.0 x_77 * x_14 - 10.5 x_77 * x_28 + 12.5 x_77 * x_32 - 14.5 x_77 * x_33 + 15.5 x_77 * x_34 + 1.0 x_77 * x_41 - 3.5 x_77 * x_45 + 9.5 x_77 * x_46 - 23.0 x_77 * x_47 - 5.5 x_77 * x_49 + 10.5 x_77 * x_60 - 24.5 x_77 * x_62 - 12.5 x_77 * x_68 - 19.0 x_77 * x_70 - 1.0 x_77 * x_72 + 21.5 x_77 * x_73 + 0.5 x_77 * x_75 + 24.0 x_77 * x_76 + 16.0 x_77 * x_78 - 7.0 x_77 * x_79 + 23.5 x_77 * x_80 + 24.0 x_78 * x_4 - 12.5 x_78 * x_10 - 10.5 x_78 * x_23 + 20.5 x_78 * x_24 - 6.5 x_78 * x_32 + 14.5 x_78 * x_38 + 16.5 x_78 * x_41 + 2.0 x_78 * x_43 - 17.5 x_78 * x_54 - 22.0 x_78 * x_57 + 18.0 x_78 * x_60 + 16.0 x_78 * x_77 + 19.0 x_78 * x_80 + 7.0 x_79 * x_4 - 12.5 x_79 * x_5 + 21.5 x_79 * x_9 + 2.0 x_79 * x_12 - 17.0 x_79 * x_19 + 21.5 x_79 * x_21 - 24.0 x_79 * x_28 - 14.0 x_79 * x_29 + 14.5 x_79 * x_31 + 7.5 x_79 * x_36 + 20.5 x_79 * x_38 - 20.5 x_79 * x_45 - 23.5 x_79 * x_46 + 2.0 x_79 * x_47 - 7.0 x_79 * x_49 - 21.5 x_79 * x_52 + 23.5 x_79 * x_55 - 2.5 x_79 * x_59 + 21.5 x_79 * x_60 + 18.0 x_79 * x_66 - 7.0 x_79 * x_77 - 3.5 x_80 * x_4 + 21.0 x_80 * x_5 + 1.0 x_80 * x_8 + 7.5 x_80 * x_12 - 23.5 x_80 * x_13 + 18.0 x_80 * x_15 + 11.5 x_80 * x_23 + 18.0 x_80 * x_28 + 5.5 x_80 * x_33 - 22.0 x_80 * x_39 - 1.0 x_80 * x_45 + 17.0 x_80 * x_48 - 15.0 x_80 * x_49 - 5.0 x_80 * x_54 - 16.5 x_80 * x_71 - 0.5 x_80 * x_74 + 23.5 x_80 * x_77 + 19.0 x_80 * x_78 ] + 0.0 x_1 + 0.0 x_2 + 11.0 x_3 + 0.0 x_4 + 0.0 x_5 + 27.0 x_6 + 0.0 x_7 + 0.0 x_8 + 0.0 x_9 + 49.0 x_10 + 0.0 x_11 + 0.0 x_12 + 0.0 x_13 + 0.0 x_14 + 0.0 x_15 + 0.0 x_16 + 0.0 x_17 + 41.0 x_18 + 0.0 x_19 + 0.0 x_20 + 13.0 x_21 + 0.0 x_22 + 0.0 x_23 + 0.0 x_24 + 0.0 x_25 - 27.0 x_26 + 0.0 x_27 + 0.0 x_28 + 0.0 x_29 + 0.0 x_30 - 10.0 x_31 + 0.0 x_32 + 0.0 x_33 + 0.0 x_34 + 0.0 x_35 + 0.0 x_36 + 0.0 x_37 + 0.0 x_38 + 0.0 x_39 + 0.0 x_40 + 0.0 x_41 + 0.0 x_42 + 0.0 x_43 + 0.0 x_44 + 36.0 x_45 + 0.0 x_46 + 0.0 x_47 + 0.0 x_48 + 0.0 x_49 + 0.0 x_50 + 0.0 x_51 + 0.0 x_52 - 17.0 x_53 + 0.0 x_54 + 49.0 x_55 + 0.0 x_56 + 0.0 x_57 + 0.0 x_58 - 35.0 x_59 + 34.0 x_60 + 0.0 x_61 + 0.0 x_62 + 0.0 x_63 + 0.0 x_64 + 0.0 x_65 + 0.0 x_66 + 0.0 x_67 + 0.0 x_68 + 0.0 x_69 + 0.0 x_70 + 0.0 x_71 + 0.0 x_72 + 0.0 x_73 + 5.0 x_74 - 48.0 x_75 + 0.0 x_76 + 38.0 x_77 + 0.0 x_78 + 0.0 x_79 - 46.0 x_80

Subject To

Bounds
 x_1 <= 1.0
 x_2 <= 1.0
 x_3 <= 1.0
 x_4 <= 1.0
 x_5 <= 1.0
 x_6 <= 1.0
 x_7 <= 1.0
 x_8 <= 1.0
 x_9 <= 1.0
 x_10 <= 1.0
 x_11 <= 1.0
 x_12 <= 1.0
 x_13 <= 1.0
 x_14 <= 1.0
 x_15 <= 1.0
 x_16 <= 1.0
 x_17 <= 1.0
 x_18 <= 1.0
 x_19 <= 1.0
 x_20 <= 1.0
 x_21 <= 1.0
 x_22 <= 1.0
 x_23 <= 1.0
 x_24 <= 1.0
 x_25 <= 1.0
 x_26 <= 1.0
 x_27 <= 1.0
 x_28 <= 1.0
 x_29 <= 1.0
 x_30 <= 1.0
 x_31 <= 1.0
 x_32 <= 1.0
 x_33 <= 1.0
 x_34 <= 1.0
 x_35 <= 1.0
 x_36 <= 1.0
 x_37 <= 1.0
 x_38 <= 1.0
 x_39 <= 1.0
 x_40 <= 1.0
 x_41 <= 1.0
 x_42 <= 1.0
 x_43 <= 1.0
 x_44 <= 1.0
 x_45 <= 1.0
 x_46 <= 1.0
 x_47 <= 1.0
 x_48 <= 1.0
 x_49 <= 1.0
 x_50 <= 1.0
 x_51 <= 1.0
 x_52 <= 1.0
 x_53 <= 1.0
 x_54 <= 1.0
 x_55 <= 1.0
 x_56 <= 1.0
 x_57 <= 1.0
 x_58 <= 1.0
 x_59 <= 1.0
 x_60 <= 1.0
 x_61 <= 1.0
 x_62 <= 1.0
 x_63 <= 1.0
 x_64 <= 1.0
 x_65 <= 1.0
 x_66 <= 1.0
 x_67 <= 1.0
 x_68 <= 1.0
 x_69 <= 1.0
 x_70 <= 1.0
 x_71 <= 1.0
 x_72 <= 1.0
 x_73 <= 1.0
 x_74 <= 1.0
 x_75 <= 1.0
 x_76 <= 1.0
 x_77 <= 1.0
 x_78 <= 1.0
 x_79 <= 1.0
 x_80 <= 1.0

End